p edge 869 4077
e 2 1
e 10 1
e 11 1
e 3 2
e 10 2
e 11 2
e 12 2
e 4 3
e 11 3
e 12 3
e 13 3
e 5 4
e 12 4
e 13 4
e 14 4
e 6 5
e 13 5
e 14 5
e 15 5
e 7 6
e 14 6
e 15 6
e 16 6
e 8 7
e 15 7
e 16 7
e 17 7
e 9 8
e 16 8
e 17 8
e 18 8
e 17 9
e 18 9
e 11 10
e 19 10
e 20 10
e 12 11
e 19 11
e 20 11
e 21 11
e 13 12
e 20 12
e 21 12
e 22 12
e 14 13
e 21 13
e 22 13
e 23 13
e 15 14
e 22 14
e 23 14
e 24 14
e 16 15
e 23 15
e 24 15
e 25 15
e 17 16
e 24 16
e 25 16
e 26 16
e 18 17
e 25 17
e 26 17
e 27 17
e 26 18
e 27 18
e 20 19
e 28 19
e 29 19
e 21 20
e 28 20
e 29 20
e 30 20
e 22 21
e 29 21
e 30 21
e 31 21
e 23 22
e 30 22
e 31 22
e 32 22
e 24 23
e 31 23
e 32 23
e 33 23
e 25 24
e 32 24
e 33 24
e 34 24
e 26 25
e 33 25
e 34 25
e 35 25
e 27 26
e 34 26
e 35 26
e 36 26
e 35 27
e 36 27
e 29 28
e 30 29
e 31 30
e 32 31
e 37 31
e 38 31
e 33 32
e 37 32
e 38 32
e 39 32
e 34 33
e 38 33
e 39 33
e 40 33
e 35 34
e 39 34
e 40 34
e 41 34
e 36 35
e 40 35
e 41 35
e 42 35
e 41 36
e 42 36
e 38 37
e 43 37
e 44 37
e 39 38
e 43 38
e 44 38
e 45 38
e 40 39
e 44 39
e 45 39
e 46 39
e 41 40
e 45 40
e 46 40
e 47 40
e 42 41
e 46 41
e 47 41
e 48 41
e 47 42
e 48 42
e 44 43
e 49 43
e 50 43
e 45 44
e 49 44
e 50 44
e 51 44
e 46 45
e 50 45
e 51 45
e 52 45
e 47 46
e 51 46
e 52 46
e 53 46
e 48 47
e 52 47
e 53 47
e 54 47
e 53 48
e 54 48
e 50 49
e 55 49
e 56 49
e 51 50
e 55 50
e 56 50
e 57 50
e 52 51
e 56 51
e 57 51
e 58 51
e 53 52
e 57 52
e 58 52
e 59 52
e 54 53
e 58 53
e 59 53
e 60 53
e 59 54
e 60 54
e 56 55
e 62 55
e 63 55
e 57 56
e 62 56
e 63 56
e 64 56
e 58 57
e 63 57
e 64 57
e 65 57
e 59 58
e 64 58
e 65 58
e 66 58
e 60 59
e 65 59
e 66 59
e 67 59
e 61 60
e 66 60
e 67 60
e 68 60
e 97 60
e 67 61
e 68 61
e 97 61
e 63 62
e 69 62
e 70 62
e 64 63
e 69 63
e 70 63
e 71 63
e 65 64
e 70 64
e 71 64
e 72 64
e 66 65
e 71 65
e 72 65
e 73 65
e 67 66
e 72 66
e 73 66
e 74 66
e 98 66
e 68 67
e 73 67
e 74 67
e 97 67
e 98 67
e 74 68
e 98 68
e 70 69
e 75 69
e 76 69
e 71 70
e 75 70
e 76 70
e 77 70
e 72 71
e 76 71
e 77 71
e 78 71
e 73 72
e 77 72
e 78 72
e 79 72
e 100 72
e 74 73
e 78 73
e 79 73
e 98 73
e 100 73
e 79 74
e 97 74
e 100 74
e 76 75
e 80 75
e 81 75
e 77 76
e 80 76
e 81 76
e 82 76
e 78 77
e 81 77
e 82 77
e 83 77
e 103 77
e 79 78
e 82 78
e 83 78
e 100 78
e 103 78
e 83 79
e 98 79
e 103 79
e 81 80
e 84 80
e 85 80
e 82 81
e 84 81
e 85 81
e 86 81
e 83 82
e 85 82
e 86 82
e 87 82
e 103 82
e 107 82
e 87 83
e 100 83
e 107 83
e 85 84
e 88 84
e 89 84
e 86 85
e 88 85
e 89 85
e 90 85
e 87 86
e 89 86
e 90 86
e 107 86
e 103 87
e 89 88
e 91 88
e 92 88
e 90 89
e 91 89
e 92 89
e 93 89
e 92 90
e 93 90
e 92 91
e 94 91
e 95 91
e 93 92
e 94 92
e 95 92
e 96 92
e 95 93
e 96 93
e 95 94
e 96 95
e 98 97
e 99 97
e 99 98
e 100 98
e 101 98
e 102 98
e 101 99
e 102 99
e 101 100
e 103 100
e 104 100
e 105 100
e 102 101
e 104 101
e 105 101
e 106 101
e 105 102
e 106 102
e 104 103
e 107 103
e 108 103
e 109 103
e 105 104
e 108 104
e 109 104
e 110 104
e 106 105
e 109 105
e 110 105
e 111 105
e 110 106
e 111 106
e 108 107
e 112 107
e 113 107
e 109 108
e 112 108
e 113 108
e 114 108
e 110 109
e 113 109
e 114 109
e 115 109
e 111 110
e 114 110
e 115 110
e 116 110
e 115 111
e 116 111
e 113 112
e 117 112
e 118 112
e 122 112
e 123 112
e 114 113
e 117 113
e 118 113
e 119 113
e 122 113
e 123 113
e 124 113
e 115 114
e 118 114
e 119 114
e 120 114
e 123 114
e 124 114
e 125 114
e 116 115
e 119 115
e 120 115
e 121 115
e 124 115
e 125 115
e 126 115
e 120 116
e 121 116
e 125 116
e 126 116
e 118 117
e 123 117
e 119 118
e 122 118
e 124 118
e 120 119
e 123 119
e 125 119
e 121 120
e 124 120
e 126 120
e 125 121
e 123 122
e 134 122
e 135 122
e 124 123
e 134 123
e 135 123
e 136 123
e 125 124
e 135 124
e 136 124
e 137 124
e 126 125
e 136 125
e 137 125
e 138 125
e 127 126
e 137 126
e 138 126
e 139 126
e 128 127
e 138 127
e 139 127
e 140 127
e 129 128
e 139 128
e 140 128
e 141 128
e 130 129
e 140 129
e 141 129
e 142 129
e 131 130
e 141 130
e 142 130
e 143 130
e 132 131
e 142 131
e 143 131
e 144 131
e 133 132
e 143 132
e 144 132
e 145 132
e 144 133
e 145 133
e 700 133
e 710 133
e 135 134
e 146 134
e 147 134
e 136 135
e 146 135
e 147 135
e 148 135
e 137 136
e 147 136
e 148 136
e 149 136
e 138 137
e 148 137
e 149 137
e 150 137
e 139 138
e 149 138
e 150 138
e 151 138
e 140 139
e 150 139
e 151 139
e 152 139
e 141 140
e 151 140
e 152 140
e 153 140
e 142 141
e 152 141
e 153 141
e 154 141
e 143 142
e 153 142
e 154 142
e 155 142
e 144 143
e 154 143
e 155 143
e 156 143
e 145 144
e 155 144
e 156 144
e 157 144
e 156 145
e 157 145
e 700 145
e 710 145
e 720 145
e 147 146
e 158 146
e 159 146
e 148 147
e 158 147
e 159 147
e 160 147
e 149 148
e 159 148
e 160 148
e 161 148
e 150 149
e 160 149
e 161 149
e 162 149
e 151 150
e 161 150
e 162 150
e 163 150
e 152 151
e 162 151
e 163 151
e 164 151
e 153 152
e 163 152
e 164 152
e 165 152
e 154 153
e 164 153
e 165 153
e 166 153
e 155 154
e 165 154
e 166 154
e 167 154
e 156 155
e 166 155
e 167 155
e 168 155
e 157 156
e 167 156
e 168 156
e 169 156
e 168 157
e 169 157
e 710 157
e 720 157
e 730 157
e 159 158
e 170 158
e 171 158
e 160 159
e 170 159
e 171 159
e 172 159
e 161 160
e 171 160
e 172 160
e 173 160
e 162 161
e 172 161
e 173 161
e 174 161
e 163 162
e 173 162
e 174 162
e 175 162
e 164 163
e 174 163
e 175 163
e 176 163
e 165 164
e 175 164
e 176 164
e 177 164
e 166 165
e 176 165
e 177 165
e 178 165
e 167 166
e 177 166
e 178 166
e 179 166
e 168 167
e 178 167
e 179 167
e 180 167
e 169 168
e 179 168
e 180 168
e 181 168
e 180 169
e 181 169
e 720 169
e 730 169
e 740 169
e 171 170
e 182 170
e 183 170
e 172 171
e 182 171
e 183 171
e 184 171
e 173 172
e 183 172
e 184 172
e 185 172
e 174 173
e 184 173
e 185 173
e 186 173
e 175 174
e 185 174
e 186 174
e 187 174
e 176 175
e 186 175
e 187 175
e 188 175
e 177 176
e 187 176
e 188 176
e 189 176
e 178 177
e 188 177
e 189 177
e 190 177
e 179 178
e 189 178
e 190 178
e 191 178
e 180 179
e 190 179
e 191 179
e 192 179
e 181 180
e 191 180
e 192 180
e 193 180
e 192 181
e 193 181
e 730 181
e 740 181
e 750 181
e 183 182
e 194 182
e 195 182
e 184 183
e 194 183
e 195 183
e 196 183
e 185 184
e 195 184
e 196 184
e 197 184
e 186 185
e 196 185
e 197 185
e 198 185
e 187 186
e 197 186
e 198 186
e 199 186
e 188 187
e 198 187
e 199 187
e 200 187
e 189 188
e 199 188
e 200 188
e 201 188
e 190 189
e 200 189
e 201 189
e 202 189
e 191 190
e 201 190
e 202 190
e 203 190
e 192 191
e 202 191
e 203 191
e 204 191
e 193 192
e 203 192
e 204 192
e 205 192
e 204 193
e 205 193
e 740 193
e 750 193
e 760 193
e 195 194
e 206 194
e 207 194
e 196 195
e 206 195
e 207 195
e 208 195
e 197 196
e 207 196
e 208 196
e 209 196
e 198 197
e 208 197
e 209 197
e 210 197
e 199 198
e 209 198
e 210 198
e 211 198
e 200 199
e 210 199
e 211 199
e 212 199
e 201 200
e 211 200
e 212 200
e 213 200
e 202 201
e 212 201
e 213 201
e 214 201
e 203 202
e 213 202
e 214 202
e 215 202
e 204 203
e 214 203
e 215 203
e 216 203
e 205 204
e 215 204
e 216 204
e 217 204
e 216 205
e 217 205
e 750 205
e 760 205
e 770 205
e 207 206
e 218 206
e 219 206
e 208 207
e 218 207
e 219 207
e 220 207
e 209 208
e 219 208
e 220 208
e 221 208
e 210 209
e 220 209
e 221 209
e 222 209
e 211 210
e 221 210
e 222 210
e 223 210
e 212 211
e 222 211
e 223 211
e 224 211
e 213 212
e 223 212
e 224 212
e 225 212
e 214 213
e 224 213
e 225 213
e 226 213
e 215 214
e 225 214
e 226 214
e 227 214
e 216 215
e 226 215
e 227 215
e 228 215
e 217 216
e 227 216
e 228 216
e 229 216
e 228 217
e 229 217
e 760 217
e 770 217
e 780 217
e 219 218
e 230 218
e 231 218
e 220 219
e 230 219
e 231 219
e 232 219
e 221 220
e 231 220
e 232 220
e 233 220
e 222 221
e 232 221
e 233 221
e 234 221
e 223 222
e 233 222
e 234 222
e 235 222
e 224 223
e 234 223
e 235 223
e 236 223
e 225 224
e 235 224
e 236 224
e 237 224
e 226 225
e 236 225
e 237 225
e 238 225
e 227 226
e 237 226
e 238 226
e 239 226
e 228 227
e 238 227
e 239 227
e 240 227
e 229 228
e 239 228
e 240 228
e 241 228
e 240 229
e 241 229
e 770 229
e 780 229
e 790 229
e 231 230
e 242 230
e 243 230
e 232 231
e 242 231
e 243 231
e 244 231
e 233 232
e 243 232
e 244 232
e 245 232
e 234 233
e 244 233
e 245 233
e 246 233
e 235 234
e 245 234
e 246 234
e 247 234
e 236 235
e 246 235
e 247 235
e 248 235
e 237 236
e 247 236
e 248 236
e 249 236
e 238 237
e 248 237
e 249 237
e 250 237
e 239 238
e 249 238
e 250 238
e 251 238
e 240 239
e 250 239
e 251 239
e 252 239
e 241 240
e 251 240
e 252 240
e 253 240
e 252 241
e 253 241
e 780 241
e 790 241
e 800 241
e 243 242
e 254 242
e 255 242
e 277 242
e 278 242
e 244 243
e 254 243
e 255 243
e 256 243
e 277 243
e 278 243
e 279 243
e 245 244
e 255 244
e 256 244
e 257 244
e 278 244
e 279 244
e 280 244
e 246 245
e 256 245
e 257 245
e 258 245
e 279 245
e 280 245
e 281 245
e 247 246
e 257 246
e 258 246
e 259 246
e 280 246
e 281 246
e 282 246
e 248 247
e 258 247
e 259 247
e 260 247
e 281 247
e 282 247
e 283 247
e 249 248
e 259 248
e 260 248
e 261 248
e 282 248
e 283 248
e 284 248
e 250 249
e 260 249
e 261 249
e 262 249
e 283 249
e 284 249
e 285 249
e 251 250
e 261 250
e 262 250
e 263 250
e 284 250
e 285 250
e 286 250
e 252 251
e 263 251
e 264 251
e 286 251
e 287 251
e 253 252
e 264 252
e 265 252
e 266 252
e 287 252
e 265 253
e 266 253
e 790 253
e 800 253
e 810 253
e 255 254
e 278 254
e 256 255
e 277 255
e 279 255
e 257 256
e 278 256
e 280 256
e 258 257
e 279 257
e 281 257
e 259 258
e 280 258
e 282 258
e 260 259
e 281 259
e 283 259
e 261 260
e 282 260
e 284 260
e 262 261
e 283 261
e 285 261
e 263 262
e 284 262
e 286 262
e 264 263
e 285 263
e 287 263
e 265 264
e 286 264
e 266 265
e 267 265
e 268 265
e 287 265
e 267 266
e 268 266
e 800 266
e 810 266
e 820 266
e 268 267
e 269 267
e 270 267
e 269 268
e 270 268
e 810 268
e 820 268
e 830 268
e 270 269
e 271 269
e 272 269
e 271 270
e 272 270
e 820 270
e 830 270
e 840 270
e 272 271
e 273 271
e 274 271
e 273 272
e 274 272
e 830 272
e 840 272
e 850 272
e 274 273
e 275 273
e 276 273
e 275 274
e 276 274
e 840 274
e 850 274
e 860 274
e 276 275
e 850 276
e 860 276
e 278 277
e 288 277
e 289 277
e 299 277
e 300 277
e 279 278
e 288 278
e 289 278
e 290 278
e 299 278
e 300 278
e 301 278
e 280 279
e 289 279
e 290 279
e 291 279
e 300 279
e 301 279
e 302 279
e 281 280
e 290 280
e 291 280
e 292 280
e 301 280
e 302 280
e 303 280
e 282 281
e 291 281
e 292 281
e 293 281
e 302 281
e 303 281
e 304 281
e 283 282
e 292 282
e 293 282
e 294 282
e 303 282
e 304 282
e 305 282
e 284 283
e 293 283
e 294 283
e 295 283
e 304 283
e 305 283
e 306 283
e 285 284
e 294 284
e 295 284
e 296 284
e 305 284
e 306 284
e 307 284
e 286 285
e 295 285
e 296 285
e 297 285
e 306 285
e 307 285
e 308 285
e 287 286
e 296 286
e 297 286
e 298 286
e 307 286
e 308 286
e 309 286
e 297 287
e 298 287
e 308 287
e 309 287
e 289 288
e 300 288
e 290 289
e 299 289
e 301 289
e 291 290
e 300 290
e 302 290
e 292 291
e 301 291
e 303 291
e 293 292
e 302 292
e 304 292
e 294 293
e 303 293
e 305 293
e 295 294
e 304 294
e 306 294
e 296 295
e 305 295
e 307 295
e 297 296
e 306 296
e 308 296
e 298 297
e 307 297
e 309 297
e 308 298
e 300 299
e 311 299
e 312 299
e 301 300
e 311 300
e 312 300
e 313 300
e 302 301
e 312 301
e 313 301
e 314 301
e 303 302
e 313 302
e 314 302
e 315 302
e 304 303
e 314 303
e 315 303
e 316 303
e 305 304
e 315 304
e 316 304
e 317 304
e 306 305
e 316 305
e 317 305
e 318 305
e 307 306
e 317 306
e 318 306
e 319 306
e 308 307
e 318 307
e 319 307
e 320 307
e 309 308
e 319 308
e 320 308
e 321 308
e 310 309
e 320 309
e 321 309
e 322 309
e 321 310
e 322 310
e 312 311
e 323 311
e 324 311
e 313 312
e 323 312
e 324 312
e 325 312
e 314 313
e 324 313
e 325 313
e 326 313
e 315 314
e 325 314
e 326 314
e 327 314
e 316 315
e 326 315
e 327 315
e 328 315
e 317 316
e 327 316
e 328 316
e 329 316
e 318 317
e 328 317
e 329 317
e 330 317
e 319 318
e 329 318
e 330 318
e 331 318
e 320 319
e 330 319
e 331 319
e 332 319
e 321 320
e 331 320
e 332 320
e 333 320
e 322 321
e 332 321
e 333 321
e 334 321
e 333 322
e 334 322
e 324 323
e 335 323
e 336 323
e 325 324
e 335 324
e 336 324
e 337 324
e 326 325
e 336 325
e 337 325
e 338 325
e 327 326
e 337 326
e 338 326
e 339 326
e 328 327
e 338 327
e 339 327
e 340 327
e 329 328
e 339 328
e 340 328
e 341 328
e 330 329
e 340 329
e 341 329
e 342 329
e 331 330
e 341 330
e 342 330
e 343 330
e 332 331
e 342 331
e 343 331
e 344 331
e 333 332
e 343 332
e 344 332
e 345 332
e 334 333
e 344 333
e 345 333
e 346 333
e 345 334
e 346 334
e 336 335
e 347 335
e 348 335
e 337 336
e 347 336
e 348 336
e 349 336
e 338 337
e 348 337
e 349 337
e 350 337
e 339 338
e 349 338
e 350 338
e 351 338
e 340 339
e 350 339
e 351 339
e 352 339
e 341 340
e 351 340
e 352 340
e 353 340
e 342 341
e 352 341
e 353 341
e 354 341
e 343 342
e 353 342
e 354 342
e 355 342
e 344 343
e 354 343
e 355 343
e 356 343
e 345 344
e 355 344
e 356 344
e 357 344
e 346 345
e 356 345
e 357 345
e 358 345
e 357 346
e 358 346
e 348 347
e 359 347
e 360 347
e 349 348
e 359 348
e 360 348
e 361 348
e 350 349
e 360 349
e 361 349
e 362 349
e 351 350
e 361 350
e 362 350
e 363 350
e 352 351
e 362 351
e 363 351
e 364 351
e 353 352
e 363 352
e 364 352
e 365 352
e 354 353
e 364 353
e 365 353
e 366 353
e 355 354
e 365 354
e 366 354
e 367 354
e 356 355
e 366 355
e 367 355
e 368 355
e 357 356
e 367 356
e 368 356
e 369 356
e 358 357
e 368 357
e 369 357
e 370 357
e 369 358
e 370 358
e 360 359
e 371 359
e 372 359
e 361 360
e 371 360
e 372 360
e 373 360
e 362 361
e 372 361
e 373 361
e 374 361
e 363 362
e 373 362
e 374 362
e 375 362
e 364 363
e 374 363
e 375 363
e 376 363
e 365 364
e 375 364
e 376 364
e 377 364
e 366 365
e 376 365
e 377 365
e 378 365
e 367 366
e 377 366
e 378 366
e 379 366
e 368 367
e 378 367
e 379 367
e 380 367
e 369 368
e 379 368
e 380 368
e 381 368
e 370 369
e 380 369
e 381 369
e 382 369
e 381 370
e 382 370
e 372 371
e 383 371
e 384 371
e 373 372
e 383 372
e 384 372
e 385 372
e 374 373
e 384 373
e 385 373
e 386 373
e 375 374
e 385 374
e 386 374
e 387 374
e 376 375
e 386 375
e 387 375
e 388 375
e 377 376
e 387 376
e 388 376
e 389 376
e 378 377
e 388 377
e 389 377
e 390 377
e 379 378
e 389 378
e 390 378
e 391 378
e 380 379
e 390 379
e 391 379
e 392 379
e 381 380
e 391 380
e 392 380
e 393 380
e 445 380
e 382 381
e 392 381
e 393 381
e 445 381
e 393 382
e 445 382
e 384 383
e 394 383
e 395 383
e 385 384
e 394 384
e 395 384
e 396 384
e 386 385
e 395 385
e 396 385
e 397 385
e 387 386
e 396 386
e 397 386
e 398 386
e 388 387
e 397 387
e 398 387
e 399 387
e 389 388
e 398 388
e 399 388
e 400 388
e 390 389
e 399 389
e 400 389
e 401 389
e 391 390
e 400 390
e 401 390
e 402 390
e 392 391
e 401 391
e 402 391
e 403 391
e 448 391
e 393 392
e 402 392
e 403 392
e 445 392
e 448 392
e 403 393
e 448 393
e 395 394
e 404 394
e 405 394
e 396 395
e 404 395
e 405 395
e 406 395
e 397 396
e 405 396
e 406 396
e 407 396
e 398 397
e 406 397
e 407 397
e 408 397
e 399 398
e 407 398
e 408 398
e 409 398
e 400 399
e 408 399
e 409 399
e 410 399
e 401 400
e 409 400
e 410 400
e 411 400
e 402 401
e 410 401
e 411 401
e 412 401
e 452 401
e 403 402
e 411 402
e 412 402
e 448 402
e 452 402
e 412 403
e 445 403
e 452 403
e 405 404
e 413 404
e 414 404
e 406 405
e 413 405
e 414 405
e 415 405
e 407 406
e 414 406
e 415 406
e 416 406
e 408 407
e 415 407
e 416 407
e 417 407
e 409 408
e 416 408
e 417 408
e 418 408
e 410 409
e 417 409
e 418 409
e 419 409
e 411 410
e 418 410
e 419 410
e 420 410
e 457 410
e 412 411
e 419 411
e 420 411
e 452 411
e 457 411
e 420 412
e 448 412
e 457 412
e 414 413
e 421 413
e 422 413
e 415 414
e 421 414
e 422 414
e 423 414
e 416 415
e 422 415
e 423 415
e 424 415
e 417 416
e 423 416
e 424 416
e 425 416
e 418 417
e 424 417
e 425 417
e 426 417
e 419 418
e 425 418
e 426 418
e 427 418
e 463 418
e 420 419
e 426 419
e 427 419
e 457 419
e 463 419
e 427 420
e 452 420
e 463 420
e 422 421
e 428 421
e 429 421
e 423 422
e 428 422
e 429 422
e 430 422
e 424 423
e 429 423
e 430 423
e 431 423
e 425 424
e 430 424
e 431 424
e 432 424
e 426 425
e 431 425
e 432 425
e 433 425
e 470 425
e 427 426
e 432 426
e 433 426
e 463 426
e 470 426
e 433 427
e 457 427
e 470 427
e 429 428
e 434 428
e 435 428
e 430 429
e 434 429
e 435 429
e 436 429
e 431 430
e 435 430
e 436 430
e 437 430
e 432 431
e 436 431
e 437 431
e 438 431
e 479 431
e 433 432
e 437 432
e 438 432
e 470 432
e 479 432
e 438 433
e 463 433
e 479 433
e 435 434
e 439 434
e 440 434
e 436 435
e 439 435
e 440 435
e 437 436
e 440 436
e 441 436
e 442 436
e 478 436
e 489 436
e 438 437
e 441 437
e 478 437
e 479 437
e 441 438
e 470 438
e 478 438
e 440 439
e 443 439
e 444 439
e 488 439
e 442 440
e 443 440
e 488 440
e 489 440
e 442 441
e 479 441
e 489 441
e 443 442
e 478 442
e 488 442
e 444 443
e 489 443
e 488 444
e 446 445
e 448 445
e 449 445
e 450 445
e 447 446
e 449 446
e 450 446
e 451 446
e 450 447
e 451 447
e 449 448
e 452 448
e 453 448
e 454 448
e 450 449
e 453 449
e 454 449
e 455 449
e 451 450
e 454 450
e 455 450
e 456 450
e 455 451
e 456 451
e 453 452
e 457 452
e 458 452
e 459 452
e 454 453
e 458 453
e 459 453
e 460 453
e 455 454
e 459 454
e 460 454
e 461 454
e 456 455
e 460 455
e 461 455
e 462 455
e 461 456
e 462 456
e 458 457
e 463 457
e 464 457
e 465 457
e 459 458
e 464 458
e 465 458
e 466 458
e 460 459
e 465 459
e 466 459
e 467 459
e 461 460
e 466 460
e 467 460
e 468 460
e 462 461
e 467 461
e 468 461
e 469 461
e 468 462
e 469 462
e 464 463
e 470 463
e 471 463
e 472 463
e 465 464
e 471 464
e 472 464
e 473 464
e 466 465
e 472 465
e 473 465
e 474 465
e 467 466
e 473 466
e 474 466
e 475 466
e 468 467
e 474 467
e 475 467
e 476 467
e 469 468
e 475 468
e 476 468
e 477 468
e 476 469
e 477 469
e 471 470
e 479 470
e 480 470
e 472 471
e 480 471
e 481 471
e 482 471
e 473 472
e 481 472
e 482 472
e 483 472
e 474 473
e 482 473
e 483 473
e 484 473
e 475 474
e 483 474
e 484 474
e 485 474
e 476 475
e 484 475
e 485 475
e 486 475
e 477 476
e 485 476
e 486 476
e 487 476
e 486 477
e 487 477
e 479 478
e 489 478
e 490 478
e 501 478
e 480 479
e 490 479
e 481 480
e 490 480
e 491 480
e 492 480
e 482 481
e 491 481
e 492 481
e 493 481
e 483 482
e 492 482
e 493 482
e 494 482
e 484 483
e 493 483
e 494 483
e 495 483
e 485 484
e 494 484
e 495 484
e 496 484
e 486 485
e 495 485
e 496 485
e 497 485
e 487 486
e 496 486
e 497 486
e 498 486
e 497 487
e 498 487
e 489 488
e 499 488
e 500 488
e 500 489
e 501 489
e 491 490
e 501 490
e 502 490
e 503 490
e 492 491
e 502 491
e 503 491
e 504 491
e 493 492
e 503 492
e 504 492
e 505 492
e 494 493
e 504 493
e 505 493
e 506 493
e 495 494
e 505 494
e 506 494
e 507 494
e 496 495
e 506 495
e 507 495
e 508 495
e 497 496
e 507 496
e 508 496
e 509 496
e 498 497
e 508 497
e 509 497
e 510 497
e 509 498
e 510 498
e 500 499
e 511 499
e 512 499
e 501 500
e 511 500
e 512 500
e 513 500
e 502 501
e 512 501
e 513 501
e 514 501
e 503 502
e 513 502
e 514 502
e 515 502
e 504 503
e 514 503
e 515 503
e 516 503
e 505 504
e 515 504
e 516 504
e 517 504
e 506 505
e 516 505
e 517 505
e 518 505
e 507 506
e 517 506
e 518 506
e 519 506
e 508 507
e 518 507
e 519 507
e 520 507
e 509 508
e 519 508
e 520 508
e 521 508
e 510 509
e 520 509
e 521 509
e 522 509
e 521 510
e 522 510
e 512 511
e 523 511
e 524 511
e 513 512
e 523 512
e 524 512
e 525 512
e 514 513
e 524 513
e 525 513
e 526 513
e 515 514
e 525 514
e 526 514
e 527 514
e 516 515
e 526 515
e 527 515
e 528 515
e 517 516
e 527 516
e 528 516
e 529 516
e 518 517
e 528 517
e 529 517
e 530 517
e 519 518
e 529 518
e 530 518
e 531 518
e 520 519
e 530 519
e 531 519
e 532 519
e 521 520
e 531 520
e 532 520
e 533 520
e 522 521
e 532 521
e 533 521
e 534 521
e 533 522
e 534 522
e 524 523
e 535 523
e 536 523
e 525 524
e 535 524
e 536 524
e 537 524
e 526 525
e 536 525
e 537 525
e 538 525
e 527 526
e 537 526
e 538 526
e 539 526
e 528 527
e 538 527
e 539 527
e 540 527
e 529 528
e 539 528
e 540 528
e 541 528
e 530 529
e 540 529
e 541 529
e 542 529
e 531 530
e 541 530
e 542 530
e 543 530
e 532 531
e 542 531
e 543 531
e 544 531
e 533 532
e 543 532
e 544 532
e 545 532
e 534 533
e 544 533
e 545 533
e 546 533
e 545 534
e 546 534
e 536 535
e 547 535
e 537 536
e 547 536
e 548 536
e 582 536
e 538 537
e 548 537
e 549 537
e 582 537
e 583 537
e 539 538
e 548 538
e 549 538
e 550 538
e 582 538
e 583 538
e 584 538
e 540 539
e 549 539
e 550 539
e 551 539
e 583 539
e 584 539
e 585 539
e 541 540
e 550 540
e 551 540
e 552 540
e 584 540
e 585 540
e 586 540
e 542 541
e 551 541
e 552 541
e 553 541
e 585 541
e 586 541
e 587 541
e 543 542
e 552 542
e 553 542
e 554 542
e 586 542
e 587 542
e 588 542
e 544 543
e 553 543
e 554 543
e 555 543
e 587 543
e 588 543
e 589 543
e 545 544
e 554 544
e 555 544
e 556 544
e 588 544
e 589 544
e 590 544
e 546 545
e 555 545
e 556 545
e 557 545
e 589 545
e 590 545
e 591 545
e 556 546
e 557 546
e 590 546
e 591 546
e 548 547
e 558 547
e 559 547
e 582 547
e 549 548
e 558 548
e 559 548
e 583 548
e 550 549
e 582 549
e 584 549
e 551 550
e 583 550
e 585 550
e 552 551
e 584 551
e 586 551
e 553 552
e 585 552
e 587 552
e 554 553
e 586 553
e 588 553
e 555 554
e 587 554
e 589 554
e 556 555
e 588 555
e 590 555
e 557 556
e 589 556
e 591 556
e 590 557
e 559 558
e 560 558
e 561 558
e 582 558
e 560 559
e 561 559
e 582 559
e 561 560
e 562 560
e 563 560
e 562 561
e 563 561
e 563 562
e 564 562
e 565 562
e 564 563
e 565 563
e 565 564
e 566 564
e 567 564
e 566 565
e 567 565
e 567 566
e 568 566
e 569 566
e 568 567
e 569 567
e 569 568
e 570 568
e 571 568
e 570 569
e 571 569
e 571 570
e 572 570
e 573 570
e 572 571
e 573 571
e 573 572
e 574 572
e 575 572
e 574 573
e 575 573
e 575 574
e 576 574
e 577 574
e 576 575
e 577 575
e 577 576
e 578 576
e 579 576
e 578 577
e 579 577
e 579 578
e 580 578
e 581 578
e 580 579
e 581 579
e 581 580
e 583 582
e 592 582
e 593 582
e 584 583
e 592 583
e 593 583
e 594 583
e 585 584
e 593 584
e 594 584
e 595 584
e 586 585
e 594 585
e 595 585
e 596 585
e 587 586
e 595 586
e 596 586
e 597 586
e 588 587
e 596 587
e 597 587
e 598 587
e 589 588
e 597 588
e 598 588
e 590 589
e 598 589
e 599 589
e 591 590
e 598 590
e 599 590
e 600 590
e 599 591
e 600 591
e 593 592
e 601 592
e 602 592
e 594 593
e 601 593
e 602 593
e 603 593
e 595 594
e 602 594
e 603 594
e 604 594
e 596 595
e 603 595
e 604 595
e 605 595
e 597 596
e 604 596
e 605 596
e 606 596
e 598 597
e 605 597
e 606 597
e 607 597
e 599 598
e 606 598
e 607 598
e 608 598
e 600 599
e 607 599
e 608 599
e 609 599
e 608 600
e 609 600
e 602 601
e 610 601
e 611 601
e 603 602
e 610 602
e 611 602
e 612 602
e 604 603
e 611 603
e 612 603
e 613 603
e 605 604
e 612 604
e 613 604
e 614 604
e 606 605
e 613 605
e 614 605
e 615 605
e 607 606
e 614 606
e 615 606
e 616 606
e 608 607
e 615 607
e 616 607
e 617 607
e 609 608
e 616 608
e 617 608
e 618 608
e 617 609
e 618 609
e 611 610
e 619 610
e 620 610
e 612 611
e 619 611
e 620 611
e 621 611
e 613 612
e 620 612
e 621 612
e 622 612
e 614 613
e 621 613
e 622 613
e 623 613
e 615 614
e 622 614
e 623 614
e 624 614
e 616 615
e 623 615
e 624 615
e 625 615
e 617 616
e 624 616
e 625 616
e 626 616
e 618 617
e 625 617
e 626 617
e 627 617
e 626 618
e 627 618
e 620 619
e 628 619
e 629 619
e 621 620
e 628 620
e 629 620
e 630 620
e 622 621
e 629 621
e 630 621
e 631 621
e 623 622
e 630 622
e 631 622
e 632 622
e 624 623
e 631 623
e 632 623
e 633 623
e 625 624
e 632 624
e 633 624
e 634 624
e 626 625
e 633 625
e 634 625
e 635 625
e 627 626
e 634 626
e 635 626
e 636 626
e 635 627
e 636 627
e 629 628
e 637 628
e 638 628
e 630 629
e 637 629
e 638 629
e 639 629
e 631 630
e 638 630
e 639 630
e 640 630
e 632 631
e 639 631
e 640 631
e 641 631
e 633 632
e 640 632
e 641 632
e 642 632
e 634 633
e 641 633
e 642 633
e 643 633
e 635 634
e 642 634
e 643 634
e 644 634
e 636 635
e 643 635
e 644 635
e 645 635
e 644 636
e 645 636
e 638 637
e 646 637
e 647 637
e 639 638
e 646 638
e 647 638
e 648 638
e 640 639
e 647 639
e 648 639
e 649 639
e 641 640
e 648 640
e 649 640
e 650 640
e 642 641
e 649 641
e 650 641
e 651 641
e 643 642
e 650 642
e 651 642
e 652 642
e 644 643
e 651 643
e 652 643
e 653 643
e 645 644
e 652 644
e 653 644
e 654 644
e 653 645
e 654 645
e 647 646
e 655 646
e 656 646
e 648 647
e 655 647
e 656 647
e 657 647
e 649 648
e 656 648
e 657 648
e 658 648
e 650 649
e 657 649
e 658 649
e 659 649
e 651 650
e 658 650
e 659 650
e 660 650
e 652 651
e 659 651
e 660 651
e 661 651
e 653 652
e 660 652
e 661 652
e 662 652
e 654 653
e 661 653
e 662 653
e 663 653
e 662 654
e 663 654
e 656 655
e 664 655
e 665 655
e 657 656
e 664 656
e 665 656
e 666 656
e 658 657
e 665 657
e 666 657
e 667 657
e 659 658
e 666 658
e 667 658
e 668 658
e 660 659
e 667 659
e 668 659
e 669 659
e 661 660
e 668 660
e 669 660
e 670 660
e 662 661
e 669 661
e 670 661
e 671 661
e 663 662
e 670 662
e 671 662
e 672 662
e 671 663
e 672 663
e 665 664
e 673 664
e 674 664
e 666 665
e 673 665
e 674 665
e 675 665
e 667 666
e 674 666
e 675 666
e 676 666
e 668 667
e 675 667
e 676 667
e 677 667
e 669 668
e 676 668
e 677 668
e 678 668
e 670 669
e 677 669
e 678 669
e 679 669
e 671 670
e 678 670
e 679 670
e 680 670
e 672 671
e 679 671
e 680 671
e 681 671
e 680 672
e 681 672
e 674 673
e 682 673
e 683 673
e 675 674
e 682 674
e 683 674
e 684 674
e 676 675
e 683 675
e 684 675
e 685 675
e 677 676
e 684 676
e 685 676
e 686 676
e 678 677
e 685 677
e 686 677
e 687 677
e 679 678
e 686 678
e 687 678
e 688 678
e 680 679
e 687 679
e 688 679
e 689 679
e 681 680
e 688 680
e 689 680
e 690 680
e 689 681
e 690 681
e 683 682
e 691 682
e 692 682
e 684 683
e 691 683
e 692 683
e 693 683
e 685 684
e 692 684
e 693 684
e 694 684
e 686 685
e 693 685
e 694 685
e 695 685
e 687 686
e 694 686
e 695 686
e 696 686
e 688 687
e 695 687
e 696 687
e 697 687
e 689 688
e 696 688
e 697 688
e 698 688
e 690 689
e 697 689
e 698 689
e 699 689
e 698 690
e 699 690
e 692 691
e 693 692
e 694 693
e 695 694
e 696 695
e 697 696
e 698 697
e 699 698
e 701 700
e 710 700
e 711 700
e 702 701
e 710 701
e 711 701
e 712 701
e 703 702
e 711 702
e 712 702
e 713 702
e 704 703
e 712 703
e 713 703
e 714 703
e 705 704
e 713 704
e 714 704
e 715 704
e 706 705
e 714 705
e 715 705
e 716 705
e 707 706
e 715 706
e 716 706
e 717 706
e 708 707
e 716 707
e 717 707
e 718 707
e 709 708
e 717 708
e 718 708
e 719 708
e 718 709
e 719 709
e 711 710
e 720 710
e 721 710
e 712 711
e 720 711
e 721 711
e 722 711
e 713 712
e 721 712
e 722 712
e 723 712
e 714 713
e 722 713
e 723 713
e 724 713
e 715 714
e 723 714
e 724 714
e 725 714
e 716 715
e 724 715
e 725 715
e 726 715
e 717 716
e 725 716
e 726 716
e 727 716
e 718 717
e 726 717
e 727 717
e 728 717
e 719 718
e 727 718
e 728 718
e 729 718
e 728 719
e 729 719
e 721 720
e 730 720
e 731 720
e 722 721
e 730 721
e 731 721
e 732 721
e 723 722
e 731 722
e 732 722
e 733 722
e 724 723
e 732 723
e 733 723
e 734 723
e 725 724
e 733 724
e 734 724
e 735 724
e 726 725
e 734 725
e 735 725
e 736 725
e 727 726
e 735 726
e 736 726
e 737 726
e 728 727
e 736 727
e 737 727
e 738 727
e 729 728
e 737 728
e 738 728
e 739 728
e 738 729
e 739 729
e 731 730
e 740 730
e 741 730
e 732 731
e 740 731
e 741 731
e 742 731
e 733 732
e 741 732
e 742 732
e 743 732
e 734 733
e 742 733
e 743 733
e 744 733
e 735 734
e 743 734
e 744 734
e 745 734
e 736 735
e 744 735
e 745 735
e 746 735
e 737 736
e 745 736
e 746 736
e 747 736
e 738 737
e 746 737
e 747 737
e 748 737
e 739 738
e 747 738
e 748 738
e 749 738
e 748 739
e 749 739
e 741 740
e 750 740
e 751 740
e 742 741
e 750 741
e 751 741
e 752 741
e 743 742
e 751 742
e 752 742
e 753 742
e 744 743
e 752 743
e 753 743
e 754 743
e 745 744
e 753 744
e 754 744
e 755 744
e 746 745
e 754 745
e 755 745
e 756 745
e 747 746
e 755 746
e 756 746
e 757 746
e 748 747
e 756 747
e 757 747
e 758 747
e 749 748
e 757 748
e 758 748
e 759 748
e 758 749
e 759 749
e 751 750
e 760 750
e 761 750
e 752 751
e 760 751
e 761 751
e 762 751
e 753 752
e 761 752
e 762 752
e 763 752
e 754 753
e 762 753
e 763 753
e 764 753
e 755 754
e 763 754
e 764 754
e 765 754
e 756 755
e 764 755
e 765 755
e 766 755
e 757 756
e 765 756
e 766 756
e 767 756
e 758 757
e 766 757
e 767 757
e 768 757
e 759 758
e 767 758
e 768 758
e 769 758
e 768 759
e 769 759
e 761 760
e 770 760
e 771 760
e 762 761
e 770 761
e 771 761
e 772 761
e 763 762
e 771 762
e 772 762
e 773 762
e 764 763
e 772 763
e 773 763
e 774 763
e 765 764
e 773 764
e 774 764
e 775 764
e 766 765
e 774 765
e 775 765
e 776 765
e 767 766
e 775 766
e 776 766
e 777 766
e 768 767
e 776 767
e 777 767
e 778 767
e 769 768
e 777 768
e 778 768
e 779 768
e 778 769
e 779 769
e 771 770
e 780 770
e 781 770
e 772 771
e 780 771
e 781 771
e 782 771
e 773 772
e 781 772
e 782 772
e 783 772
e 774 773
e 782 773
e 783 773
e 784 773
e 775 774
e 783 774
e 784 774
e 785 774
e 776 775
e 784 775
e 785 775
e 786 775
e 777 776
e 785 776
e 786 776
e 787 776
e 778 777
e 786 777
e 787 777
e 788 777
e 779 778
e 787 778
e 788 778
e 789 778
e 788 779
e 789 779
e 781 780
e 790 780
e 791 780
e 782 781
e 790 781
e 791 781
e 792 781
e 783 782
e 791 782
e 792 782
e 793 782
e 784 783
e 792 783
e 793 783
e 794 783
e 785 784
e 793 784
e 794 784
e 795 784
e 786 785
e 794 785
e 795 785
e 796 785
e 787 786
e 795 786
e 796 786
e 797 786
e 788 787
e 796 787
e 797 787
e 798 787
e 789 788
e 797 788
e 798 788
e 799 788
e 798 789
e 799 789
e 791 790
e 800 790
e 801 790
e 792 791
e 800 791
e 801 791
e 802 791
e 793 792
e 801 792
e 802 792
e 803 792
e 794 793
e 802 793
e 803 793
e 804 793
e 795 794
e 803 794
e 804 794
e 805 794
e 796 795
e 804 795
e 805 795
e 806 795
e 797 796
e 805 796
e 806 796
e 807 796
e 798 797
e 806 797
e 807 797
e 808 797
e 799 798
e 807 798
e 808 798
e 809 798
e 808 799
e 809 799
e 801 800
e 810 800
e 811 800
e 802 801
e 810 801
e 811 801
e 812 801
e 803 802
e 811 802
e 812 802
e 813 802
e 804 803
e 812 803
e 813 803
e 814 803
e 805 804
e 813 804
e 814 804
e 815 804
e 806 805
e 814 805
e 815 805
e 816 805
e 807 806
e 815 806
e 816 806
e 817 806
e 808 807
e 816 807
e 817 807
e 818 807
e 809 808
e 817 808
e 818 808
e 819 808
e 818 809
e 819 809
e 811 810
e 820 810
e 821 810
e 812 811
e 820 811
e 821 811
e 822 811
e 813 812
e 821 812
e 822 812
e 823 812
e 814 813
e 822 813
e 823 813
e 824 813
e 815 814
e 823 814
e 824 814
e 825 814
e 816 815
e 824 815
e 825 815
e 826 815
e 817 816
e 825 816
e 826 816
e 827 816
e 818 817
e 826 817
e 827 817
e 828 817
e 819 818
e 827 818
e 828 818
e 829 818
e 828 819
e 829 819
e 821 820
e 830 820
e 831 820
e 822 821
e 830 821
e 831 821
e 832 821
e 823 822
e 831 822
e 832 822
e 833 822
e 824 823
e 832 823
e 833 823
e 834 823
e 825 824
e 833 824
e 834 824
e 835 824
e 826 825
e 834 825
e 835 825
e 836 825
e 827 826
e 835 826
e 836 826
e 837 826
e 828 827
e 836 827
e 837 827
e 838 827
e 829 828
e 837 828
e 838 828
e 839 828
e 838 829
e 839 829
e 831 830
e 840 830
e 841 830
e 832 831
e 840 831
e 841 831
e 842 831
e 833 832
e 841 832
e 842 832
e 843 832
e 834 833
e 842 833
e 843 833
e 844 833
e 835 834
e 843 834
e 844 834
e 845 834
e 836 835
e 844 835
e 845 835
e 846 835
e 837 836
e 845 836
e 846 836
e 847 836
e 838 837
e 846 837
e 847 837
e 848 837
e 839 838
e 847 838
e 848 838
e 849 838
e 848 839
e 849 839
e 841 840
e 850 840
e 851 840
e 842 841
e 850 841
e 851 841
e 852 841
e 843 842
e 851 842
e 852 842
e 853 842
e 844 843
e 852 843
e 853 843
e 854 843
e 845 844
e 853 844
e 854 844
e 855 844
e 846 845
e 854 845
e 855 845
e 856 845
e 847 846
e 855 846
e 856 846
e 857 846
e 848 847
e 856 847
e 857 847
e 858 847
e 849 848
e 857 848
e 858 848
e 859 848
e 858 849
e 859 849
e 851 850
e 860 850
e 861 850
e 852 851
e 860 851
e 861 851
e 862 851
e 853 852
e 861 852
e 862 852
e 863 852
e 854 853
e 862 853
e 863 853
e 864 853
e 855 854
e 863 854
e 864 854
e 865 854
e 856 855
e 864 855
e 865 855
e 866 855
e 857 856
e 865 856
e 866 856
e 867 856
e 858 857
e 866 857
e 867 857
e 868 857
e 859 858
e 867 858
e 868 858
e 869 858
e 868 859
e 869 859
e 861 860
e 862 861
e 863 862
e 864 863
e 865 864
e 866 865
e 867 866
e 868 867
e 869 868
